
 102   30
  10   10   10   10   10   10   10   10   10   10   10   10   10   10   10   10   10   10   10   10   10   10   10   10   10   10   10   10   10   10

   0   0   0   0   0   0   0   0   0   0   0   0   0   0   0   0   0   0   0   0   0   0   0   0   0   0   0   0   0   0   0  29 2 3 4 5 6 7 8 9 10 11 12 13 14 15 16 17 18 19 20 21 22 23 24 25 26 28 30 31 40 
   7   0   0   3   0   2   0   0   0   4   0   0   0   0   0   1   0   0   0   0   4   0   0   0   0   0   0   0   0   1   0  16 99 69 65 64 63 62 61 58 57 55 47 46 44 38 36 33 
   2   0   0   0   0   0   0   0   0   0   0   0   0   1   2   0   0   0   0   0   0   0   1   0   2   0   0   0   0   0   0  17 101 99 98 93 68 66 65 62 60 59 58 54 51 50 49 47 42 
   3   0   0   0   1   4   0   0   0   0   0   2   0   0   0   0   0   3   0   0   0   0   5   0   0   0   0   0   0   9   0   9 99 65 64 54 51 50 42 34 33 
   4   0   0   0   0   0   0   0   0   0   0   0   4   9   0   0   0   0   0   0   0   0   0   0   0   0   0   0   0   0   0  14 100 99 98 97 96 74 69 64 63 56 55 52 36 32 
   1   0   0   0   0   0   0   0   0   0   0   0   0   5   0   0   0   0   0   0   0   0   0   2   0   1   0   0   1   0   0  12 97 74 73 66 61 58 55 53 45 36 33 29 
   8   0   0   0   0   0   0   0   0   0   0   0   5   0   0   0   0   0   4   0   0   0   0   0   4   0   0   0   0   5   0  17 101 99 98 95 94 93 73 72 67 66 65 64 59 57 56 54 34 
   5   0   0   0   0   0   0   0   1   0   0   0   0   0   0   0   0   0   3   0   0   0   0   0   0   0   0   1   0   0   1  17 97 94 92 89 74 73 68 65 64 63 58 57 55 49 46 41 39 
   5   0   0   0   0   0   4   0   6   0   0   6   0   0   0   0   0   0   0   0   0   0   0   0   0   0   0   0   0   0   0  16 101 100 99 98 93 73 72 66 63 62 54 49 48 47 45 42 
   1   0   0   0   7   0   0   0   0   0   0   0   0   0   0   0   0   0   0   0   0   0   0   5   6   0   0   0   0   0   0  14 101 99 98 96 74 72 68 63 61 52 49 46 37 32 
   9   0   0   0   0   0   0   0   0   0   0   0   0   4   0   0   0   0   0   0   0   0   0   0   0   0   0   0   0   0   0  12 101 99 73 72 61 59 56 54 47 45 35 34 
   9   0   0   0   0   0   7   0   0   0   0   0   0   0   0   0   0   0   0   0   0   0   0   0   0   0   0   9   0   6   0  18 101 100 97 91 89 74 71 70 69 68 65 63 62 61 56 54 50 41 
   8   0   1   0   0   0   0   0   0   0   0   0   0   0   0   0   0   0  10   0   0   0   0   0   0   0   0   0   7   0   0  13 101 97 89 74 65 61 58 56 54 51 45 41 33 
  10   0   8   0   0   0   0   0   0   0   0   5   7   0   8   0   0   0   0   0   0   1   0   5   0   0   0   0   0   0   0  17 101 100 99 98 97 96 93 89 73 64 62 58 57 53 49 46 39 
   1   0   7   0   0   0   0   0   0   0   0   0   0   0   0   0   0   0   0   0   0   0   0   4   7   0   0   0   0   0   0  21 101 100 99 97 96 93 90 89 88 73 72 70 64 63 61 60 56 52 49 46 45 
   9   0   0   0   0   0   2   2   0   6   0   7   0   7   3   0   0   0   0   0   0   0   0   0  10   0   0   0   9   0   0  17 101 100 99 95 91 74 70 68 65 64 63 60 56 54 47 45 37 
   5   0   0   0   0   0   0   0   0   0   0   0   6   0   0   0   0   0   0   0   0   0   0   7   0   8   0   0   0   0   0  13 100 98 97 96 92 74 65 64 56 51 48 36 34 
   6   0   0   0   0   0   0   3  10   0   0   0   0   0   0   0   0   0   0   1   0   0   0   0   0   0   0   0   0   0   0  10 100 99 98 69 57 56 54 50 49 27 
   1   0   0   0   0   0   0   0   6   0   1   0   6   0   0   0   3   0   0   0   0   0   0   0   0   0   0   0   0   0   0  14 101 98 92 71 69 64 62 61 60 57 56 54 43 35 
   1   0   0   0   0   0   0   0   0   1   0   0   0   0   0   0   0   0   0   0   0   0   0   0   0   0   0   0   0   7   0  18 101 100 97 96 95 94 93 92 91 85 74 73 69 64 63 55 48 47 
   5   0   0   0   0   0   0   7   0   0   0   8   0   0   7   0   7   9   0   0   0   0   0   0   0   0   0   0   0   0   0  12 101 98 97 95 94 90 88 72 64 56 54 34 
   6   0   0   0   0   6   0   0   2   9   0   0   0   0   0   0   0   0   0   0   0   0   0   0   0   0   0   5   0   0   0  11 99 98 97 92 83 73 69 65 61 47 34 
   1   0   0   0   0   0   0   0   0   7   0   0   0   0   0   0   0   0   0   6   3   0   6   0   0   0   0   0   0   0   8  10 100 98 97 96 94 88 72 56 36 34 
   5   2   0   0   0   0   0   5   0   0   0   0   0   0   0   0   0   0   0   0   0   0   0   0   0   0   0   0   3   0   0  10 101 98 96 93 92 83 74 72 67 34 
   9   0   0   0   0   0   0   0   0   0   0   0   3   0   0   0   0   0   0   0   0   0   0  10   0   0   1   0   0   0   0  15 100 97 94 93 92 90 89 73 68 64 63 58 56 54 46 
   3   0   0   0   0   0   0   0   0   0   5   0   0   2   0   0   2   0   0   0   8   0   0   0   0   0   0   0   0   0   5  12 99 93 91 89 84 80 69 65 63 58 57 50 
  10   9   0   3   0   0   0   0   0   0   0   0   0   0   0   0   3   0   0   0   0   0   0   0   0   0   7   0   7   0   0  16 97 94 93 91 90 89 88 87 86 85 83 79 72 64 60 59 
   7   0   0   0   0   0   0   0   0   0   7   0   0   0   0   0   0   0   0   0   0   0   0   0   0   0   0   0   0   8   0  14 97 95 94 93 92 90 89 87 74 68 66 63 57 54 
   9   0   0  10   0   0   0   0   0   0   0   0   3   0   8   0   5   0   0   0   0   0   0   0   8   0   0   5   0   0   7  16 99 95 94 93 89 88 87 85 83 82 81 72 71 68 65 63 
   3   0   8   0   0   0   0   0   0   0   0   0   0   0   0   0   0   0   0   0   0   0   0   0   0   0   0   0   0   0   0  12 99 95 94 91 85 83 72 70 67 63 60 47 
   9   0   0   0   0   0   0   0   7   0   0   0   0   0   5   0   0   0   0   0   0   0   0   0   0   0   0   6   7   0   0  11 101 98 97 93 90 84 73 72 63 61 45 
  10   0   4   0   0   0   0   0   0   0   0   0   0   0   0   7   3   0   3   0   0   0   0   0   0   0   0   0   0   7   0   9 93 91 89 84 83 71 62 58 50 
   1   7   0   0   0   0   0   0   0   0   0   0   0   0   0   0   0   0   0   0   0   4   0   0   0   5   0   0   0   0   0  16 100 98 93 91 90 88 86 85 84 83 82 79 78 72 71 60 
  10   0   0   0   0   0   0   0   0   0   7   7   0   9   0   0   0   0   0   0   0   0   0   0   0   0   0   5   0   0   0   6 89 63 60 58 49 46 
   5   0   0   0   0   0   0   0   0   0   0   0   6   0   0   0   8   0   7   0  10   0   9   0   2   0   0   0   0   5   0  16 97 96 95 93 91 88 85 84 83 82 81 80 77 75 70 63 
   9   0   0   0   0   0   0   0   0   0   0   7   0   0   0   0   0   0   7   0   0   0   5   0   8   0   0   0   0   0   0  10 95 93 91 90 89 85 84 83 60 49 
   2   0   0   6   0   0   0   0   0   0   8   0   0   0   0   0   0   0   0   0   4   0   0   0   0   0   0   0   0   0   9  16 97 92 90 89 88 87 84 83 82 81 79 78 76 75 73 71 
   2   0   9   0   0   0   0   0   0   0   0   0   0   7   0   0   0   0   0   0   0   0   0   0   0   0   0   0   0   0   0  12 93 91 89 87 86 85 79 78 77 76 71 54 
   1   5   0   0   0   0   0   0   8   0   0   0   0   0   0   0   0   0   0   0   0   0   0   0   0   0   0   0   0   0   0   9 91 90 88 83 81 72 71 61 56 
   4   0   0   0   0   0   0  10   0   0   0   0   7   0  10   5   0   4   4  10   0   0   0   0   0   0   0   0   0   0   0  13 98 96 94 93 90 88 86 84 83 82 78 76 61 
   1   0   0   5  10   0   0   7   0   0   0   0   0   0   0   0   0   0   0   0   0   0   0   0   0   0   0   7   0   0   6  11 98 96 88 87 86 85 82 79 78 72 60 
   5   0   0   0   0   0   8   0   0   0   6   0   0   0   0   0   0   0   0   0   0   6   0   0   0   0   0   0   0   0   8   7 97 91 88 84 71 61 56 
   3   0   0   0   0   0   0   0   0   0   0   0   0   0   0   0   0   0   0   0   0   0   0   0   0   7   0   0   0   0   0  12 99 94 89 87 85 83 80 79 78 77 75 70 
   1   0   0   0   4   8   0   0   0   0   0   5   0   0   5   0   0   0   0   0   0   0   0   0   0   0  10   0   0   0   0  12 93 92 90 86 84 82 81 79 78 76 75 73 
   2   0   0   4   0   0   0   0   0   0   0   0   0   0   0   7   0   0   0   0   0   0   0   0   0   0   0   9   0   0   8  10 94 92 85 83 81 80 79 78 76 75 
   8   0   0   0   1   0   0   0   0   5   0   8   0   0   0   0   0   6   9   0   0   7   0   8   0   0   0   0   9   0   0   9 91 87 86 84 80 79 77 76 75 
   3   0   0   0   0   0   7   0   0   0   0   0   0   0   0   0   0   0   0   0   0   0   0   0   0   0   0   0   0   0   0   9 90 89 88 87 86 82 79 77 75 
   7   0   0   0   0   0   0   0   0   0   0   0   0   0   0   0   0   0   0   0   0   0   0   0   0   6   0   0   0   0   5   8 88 83 82 80 78 77 75 70 
   2   0   0   0   0   0   0   0   0   0   0   4   0   0   0   0   0   0   0   0   0   0   0   0   0   0   0   0   0   0   8   7 87 82 81 79 77 75 71 
   6   0   0   0   0   6   0   0   0   0   0   0   0   0   0   0   0   4   5   0   0   0   0   5   0   0   0   0   0   0   4   7 94 92 88 87 79 78 73 
   7   0   0   0   0   5   0   0   0   0   0   0   0   0   0   0   6   3   0   0   0   0   0   3   0   0   0   0   0   0   0   5 90 84 77 76 63 
  10   0   0   0   0   8   0   0   0   0   0   0   0   0   0   0   0   0   0   0   0   0   0   0   5   0   4   6   0   0   0   7 94 87 81 79 78 76 75 
   7   4   0   0   0   0   0   0   9   0   0   0   7   0   7   0   0   0   0   0   0   0   7   0   0   0   0   7   0   0   0   7 92 91 86 81 79 78 77 
   8   0   0   0   0   0   3   0   0   0   0   0   0   0   7   0   0   0   0   0   7   6   0   0   0   3   0   0   0   0   0   6 96 84 83 81 80 75 
   7   0   0   0   0   0   7   0   0   0   0   0   0   0   0   0   0   0   2   0   0   0   7   0   0   6   0   0   0   0   0   5 88 82 80 78 72 
   8   0   6   0   0   0   0   5   0   0   0   0   0   0   0   0   0  10   0   0   0   0   0   0   0   0   0   0   0   7   0   5 82 80 79 78 76 
   3   0   0  10   0   0   0   0   0   9   0  10   3   0   0   0   0   0   0   0   0   0   0   0   0   0   0   0   0   6   0   5 83 81 78 76 75 
  10   0   0   0   0   0   0   0   0   0   0   0   0   0   3   0   0   0   0   0   0   4   7   0   0   7   0   0   0   0   0   4 85 79 75 70 
  10   0   0   9   0   0   0   0   0   0   0   0   0   0   0   6   0   0   0   0   0   0   0   8   0   0   0   0   0   0   0   4 92 82 78 70 
  10   7   0   0   0   0   0   0   0   0   0   0   0   0   0   0  10   4   0   0   0   0   0   0   0   7   0   0   0   0   0   4 81 80 76 75 
   7   0   0   0   0   0   0   7   0   0   0   4   0   0   4   0   0   8   0   0   0   0   0   0   0   0   0   0   0   0   0   4 95 85 77 75 
   1   0   0   0   0   0   0   0   0   0   0   0   0   0   0   0   0   7   0   0   0   0   0   0   0   0   0   0   3   0   0   4 82 81 80 75 
   7   0   0   0   0   0   2   0   0   0   0   0   0   0   0   0   0   0   0   0   0   0   8   0   0   0   0   0   8   4   0   3 86 79 78 
   7   5   0   0   0   0   0   0   0   0   0   0   0   8   0   0   0   0   0   0   0   0   0   0   0   9   0   5   0   0   3   3 84 76 75 
   8   0   0   0   0   4   0   0   0   0   0   0   0   0   0   8   0   0   0   0   0   0   4   0   5   0   0   0   0   0   0   3 90 76 75 
   8   0   0   0   4   0   0   0   0   0   0   0   0   0   0   0   0   0   0   0   2   0   0   0   0   0   0   0   0   0   0   3 83 78 75 
   3   7   0   0   0   0   0   0   0   0   0   0   0   0   0   0   0   0   0   0   0   0   0   4   0   0   0   0   0   0   0   3 89 88 76 
   2   0   8   0   0   0   0   0   0   4   0   0   0   0   0   8   0   0   0   0   0   0   0   0   0   0   0   0   0   0   0   2 84 77 
   2   0   0   0   0   0   0   5   0   6   0   0   0   0   0   6   0   0   0   0   0   7   0   0   0   0   0   0   0   0   0   2 81 75 
   3   0   0   6   0   0   0   0   0   0   0   0   0   0   0   0   0   0   6   0   0   0   0   0   0   0   0   8   0   0   0   1 76 
   5   0   0   3   0   0  10   0   0   0   8   0   0   0   8   0   4   0   7   0   0   9   0   0   0   0   7   0   5   0   0   1 80 
  10   7   0   0   0  10   0   0   0   0   0   0   8   0   0   0   9   0   0   0   0   0   0   0   0   0   0   0   0   0   0   1 77 
   2   0   0   0   0   0   0   0   0   0   0   0   0   0   5   0   0   0   0   5   5   0   0   0   0   0   7   0   0   0   0   1 77 
   4   0   0   4   8   0   0   0   0   0   0   0   0   0   0   0   0   0   0   9   8   5   0   0   0   0   0   0   0   0   0   1 82 
   2   0   0   0   0   0   7   0   0  10   0   0   0   0   0   0   0   0   0   0   0   0   0   0   0   6   0   0   9   0   9   1 102
  10   0   5   0   0   0   0   0   0   0   0   0   0   0   5   0   0   0   0   0   0   0   0   0   0   7   0   0   7   0   0   1 102
   1   0   0   0   0   0   0   0   0   0   0   0   0   0   0   0   0   0   4   0   0   0   0   0   0   0   0   0   0   0   0   1 102
   7   0   0   0   0   0   0   0   0   0   0   0   0   0   4   0   0   0   0   0   0   9   0   0   0   0   0   0   0   0   0   1 102
   7   3   0   0   0   7   0   0   0   0   0   0   0   0   0   0   0   0   0   0   0   0   0   0   0   0   0   0   5   0   0   1 102
   5   0   0   0   0   0   0   5   0   0   0   0   0   6   0   6   0   4   0   0   0   0   0   0   5   0   0   0   0   0   0   1 102
   1   0   0   0   0   7   0   0   0   0   0   0   0   0   0   0   0   5   0   0   0   0   0   7   0   0   0   4   0   0   0   1 102
   8   0   0   0   0   0   0   0   7   0   0   0   0   0   0   0   0   0   0   0   0   0   0   0   0   0   0   0   0   0   0   1 102
   1   0   0   0   0   0   1   0   0   0   0   0   0   7   0   0   0   0   0   0   0   0   0   6   0   0   0   0   0   0   0   1 102
   4   0   0   0   4   0   0   0   0   0   7   0   0   0   0   0   0   0   0   0   0   0   0   0   0   0   0   0   0   0   0   1 102
   7   0   4   0   0   0   0   4   0   0   0   0   0   0   0   0   0   0   0   0   0   0   0   0   0   0   0   0   0   0   0   1 102
  10   7   0   0   0   0   0   0   0   0   0   0   0   0   0   0   0   5   0   0   0   0   0   6   0   0   6   0   0   0   0   1 102
  10   0   0   0   0   0   0   0   0   0   5   0   0   0   7   0   0   0   0   0   3   0   8   0   0   0   0   0   0   0   0   1 102
   8   0   0   0   0   0   0   0   0   0   0   0  10   0   0   0   0   8   0   0   8   0   0   0   0   0   0   0   0   0   0   1 102
   6   0   0   0   0   6   0   0   0   0   0   0   0   7   0   0   0   0   9   6   0   0   0   0   0   0   0   0   0   0   6   1 102
   6  10   0   0   0   0  10   0   0  10   0   0   0   0   0   0   0   0   0   0   0   0   0   0  10   0   0   0   0   0   0   1 102
   3   0   0   0  10   0   5   0   0   3   0   0   0   0   6   0  10   0   0   0   0   0   0   0   0   0   0   0   4   6   0   1 102
   9   0   0   0   0   0   0   0   0   0   0   0   0   0   0   0   0   0   0   0   0   0   0   0   0   0   0   0   0   0   0   1 102
  10   9   0   0   0   0   0   0   0   0   0   0   0   0   9   6   0  10   6   0   0   0   0   8   0   6   0   0   0   0   0   1 102
   5   0   0   0   8   0   0   0   5   0   0   0   0   0   0   0   8   0   0   0   0   0   0   0   0   0   0   0   0   6   5   1 102
   9   0   0   0   0   0   0   0   0   0   0   0   0   0   0   0   0   0   0   0   0   0   0   0   0   0   0   0   0   0   0   1 102
   7   0   0   0   0   0   0   8   0   0   0   0   0   0   0   0   0   0   0   0   0   0   0   0   0   0   0   0   0   7   0   1 102
   8   2   0   0   0   0   0   0   0   0   0   0   0   0   0   0   0   0   0   0   5   0   5   0   0   0   0   0   0   0   0   1 102
   4   0   0   0   9   4   8   0   4   4   0   0   9   0   5   0   0   0   0   0   9   0   0   0   0   0   0   0   0   0   4   1 102
   5   0   0   0   0   7   0   0   7   0   0   0   0   0   0   0   0   0  10   5   8   8   0   0   0   0   0   0   0   0   0   1 102
   4   0   0   7   0   0   9   7   0   0   0   5   0   0   0   0   0   0   0   0   0   0   0   0   0   0   0   7   0   0   0   1 102
   5   0   0   8   0   0   0   9   6   0   0   0   0   0   8   0   0   0   0   0   0   0   0   8   0   0   0   0   0   0   0   1 102
   0   0   0   0   0   0   0   0   0   0   0   0   0   0   0   0   0   0   0   0   0   0   0   0   0   0   0   0   0   0   0   0 
